30, 900
0, 31, 4
1, 49, 9
2, 30, 20
3, 28, 20
4, 40, 23
5, 48, 10
6, 29, 12
7, 27, 12
8, 41, 22
9, 25, 6
10, 22, 31
11, 39, 21
12, 33, 1
13, 23, 6
14, 46, 27
15, 34, 26
16, 50, 31
17, 45, 20
18, 35, 1
19, 37, 18
20, 47, 28
21, 44, 4
22, 21, 6
23, 42, 31
24, 32, 1
25, 36, 12
26, 24, 30
27, 43, 10
28, 20, 19
29, 26, 22